(set-logic ALL)
(declare-fun seed0_T_1 () Bool)
(declare-fun seed0_T_2 () Bool)
(declare-fun seed0_T_3 () Bool)
(declare-fun seed0_T_4 () Bool)
(declare-fun seed0_T_5 () Bool)
(declare-fun seed0_T_6 () Bool)
(declare-fun seed0_T_7 () Bool)
(declare-fun seed0_T_8 () Bool)
(declare-fun seed0_T_9 () Bool)
(declare-fun seed0_T_a () Bool)
(declare-fun seed0_var_0xINPUT_178465 () String)
(assert (and (or (= seed0_T_1 (not (= "cm6AfB9De3" seed0_var_0xINPUT_178465))) (and (str.< (str.++ seed0_var_0xINPUT_178465 "") (str.++ seed0_var_0xINPUT_178465 "hly5")) (str.< (str.++ seed0_var_0xINPUT_178465 "") (str.++ seed0_var_0xINPUT_178465 "jmt")))) (or seed0_T_1 (xor (str.< (str.++ seed0_var_0xINPUT_178465 "JtdWEAMQflI1") (str.++ seed0_var_0xINPUT_178465 "vYwOJLpHsxSf")) (str.suffixof (str.++ seed0_var_0xINPUT_178465 "sISwKN2fbiWR3mh5tLkE") (str.++ seed0_var_0xINPUT_178465 "iyajm9vMJAwpl")))) (or (= seed0_T_2 (not (= "" seed0_var_0xINPUT_178465))) (str.prefixof (str.++ seed0_var_0xINPUT_178465 "olH") (str.++ seed0_var_0xINPUT_178465 ""))) (or seed0_T_2 (xor (str.contains (str.++ seed0_var_0xINPUT_178465 "vp") (str.++ seed0_var_0xINPUT_178465 "BhAqo2niU5JMvNue9")) (str.< (str.++ seed0_var_0xINPUT_178465 "QocX") (str.++ seed0_var_0xINPUT_178465 "75B9kdVc0ZzQ6yApTF41")))) (or (= seed0_T_3 (not (= seed0_var_0xINPUT_178465 "3s71lxYG6e"))) (not (str.prefixof (str.++ seed0_var_0xINPUT_178465 "oi70fIPFW9mLKb") (str.++ seed0_var_0xINPUT_178465 "H3f1zTgZ")))) (or seed0_T_3 (str.contains (str.++ seed0_var_0xINPUT_178465 "5qYCrzeyoLWEmUROiP") (str.++ seed0_var_0xINPUT_178465 "vH7LBegWVJO1jQX6Mm"))) (or (= seed0_T_4 (not (= "3s71lxYG6e" seed0_var_0xINPUT_178465))) (=> (str.suffixof (str.++ seed0_var_0xINPUT_178465 "jwOVuoyiY") (str.++ seed0_var_0xINPUT_178465 "0mQy")) (str.<= (str.++ seed0_var_0xINPUT_178465 "5mpUo0") (str.++ seed0_var_0xINPUT_178465 "k3LRB6lCtgi")))) (or seed0_T_4 (str.contains (str.++ seed0_var_0xINPUT_178465 "nBzc4YQRZS0X1PvUFEOV") (str.++ seed0_var_0xINPUT_178465 "iEMGLqYBgkr8RTJ35Q2b"))) (or (= seed0_T_5 (= seed0_var_0xINPUT_178465 "")) (xor (str.<= (str.++ seed0_var_0xINPUT_178465 "5yWVpUXfq1iOkBMcrZm") (str.++ seed0_var_0xINPUT_178465 "id9tfPoyscrj86EAF")) (str.< (str.++ seed0_var_0xINPUT_178465 "") (str.++ seed0_var_0xINPUT_178465 "ISC6E3X2mFvpgh0sOVWq")))) (or (= seed0_T_6 (not seed0_T_5)) (=> (str.prefixof (str.++ seed0_var_0xINPUT_178465 "r5QsgjGwivN") (str.++ seed0_var_0xINPUT_178465 "INBtQPWZDRribX8Tm")) (str.suffixof (str.++ seed0_var_0xINPUT_178465 "F4IGqz7OPdjUEgCZH") (str.++ seed0_var_0xINPUT_178465 "9EmIH")))) (or seed0_T_6 (and (str.< (str.++ seed0_var_0xINPUT_178465 "VTfYAqLwUxa4") (str.++ seed0_var_0xINPUT_178465 "4")) (str.contains (str.++ seed0_var_0xINPUT_178465 "1") (str.++ seed0_var_0xINPUT_178465 "fiOysPaLUACqv")))) (or (= seed0_T_7 (not (= "" seed0_var_0xINPUT_178465))) (xor (str.suffixof (str.++ seed0_var_0xINPUT_178465 "2") (str.++ seed0_var_0xINPUT_178465 "coSZHx6PNOVK")) (str.contains (str.++ seed0_var_0xINPUT_178465 "UwhqmWo814HRnu6k5jrz") (str.++ seed0_var_0xINPUT_178465 "aA0C6lwRL9GHgdnXh8xT")))) (or seed0_T_7 (and (str.suffixof (str.++ seed0_var_0xINPUT_178465 "4Ln2K8IEfmOry") (str.++ seed0_var_0xINPUT_178465 "2E3GuQHRtAyg6VFK41h0")) (str.contains (str.++ seed0_var_0xINPUT_178465 "xmKGe") (str.++ seed0_var_0xINPUT_178465 "XEaynIkhrJ1c0w7lg")))) (or (= seed0_T_8 (= seed0_var_0xINPUT_178465 "Example:")) (and (str.prefixof (str.++ seed0_var_0xINPUT_178465 "Jon") (str.++ seed0_var_0xINPUT_178465 "EDsr8Qn02FtcMBNud")) (str.prefixof (str.++ seed0_var_0xINPUT_178465 "JAqPEVKCjwlsgy") (str.++ seed0_var_0xINPUT_178465 "zMyZTNrOqKmf2AuUWpSj")))) (or (= seed0_T_9 (not seed0_T_8)) (str.< (str.++ seed0_var_0xINPUT_178465 "6um9py2UkO") (str.++ seed0_var_0xINPUT_178465 "wW8tNx"))) (or seed0_T_9 (or (str.suffixof (str.++ seed0_var_0xINPUT_178465 "jxlYVt") (str.++ seed0_var_0xINPUT_178465 "PG")) (str.< (str.++ seed0_var_0xINPUT_178465 "RcMkXL324vQdsq6") (str.++ seed0_var_0xINPUT_178465 "SZ8Q6uo5Xp9aePDc0WvM")))) (or (= seed0_T_a (not (= seed0_var_0xINPUT_178465 "3s71lxYG6e"))) (=> (str.< (str.++ seed0_var_0xINPUT_178465 "zPGlgv1ur6N5b4") (str.++ seed0_var_0xINPUT_178465 "h0jE")) (str.contains (str.++ seed0_var_0xINPUT_178465 "3dvR8UAl1F5KDSB") (str.++ seed0_var_0xINPUT_178465 "jPK7")))) (or seed0_T_a (and (str.< (str.++ seed0_var_0xINPUT_178465 "gA0LYUR") (str.++ seed0_var_0xINPUT_178465 "btw")) (str.prefixof (str.++ seed0_var_0xINPUT_178465 "NDslQKvb2V") (str.++ seed0_var_0xINPUT_178465 "1NtgXAMpcSR7amFhUywq"))))))
(check-sat)
(exit)